\* Source Pyomo model name=unknown *\

max 
x367:
+5 x100
+5 x101
+5 x102
+5 x103
+5 x104
+5 x105
+5 x106
+5 x107
+5 x108
-492.39055000000002 x170
-487.12990000000002 x171
-492.39055000000002 x174
-487.12990000000002 x175
-492.39055000000002 x178
-487.12990000000002 x179
-492.39055000000002 x182
-487.12990000000002 x183
-492.39055000000002 x186
-487.12990000000002 x187
-492.39055000000002 x191
-492.39055000000002 x192
-487.12990000000002 x193
-487.12990000000002 x194
-492.39055000000002 x199
-492.39055000000002 x200
-487.12990000000002 x201
-487.12990000000002 x202
-492.39055000000002 x207
-492.39055000000002 x208
-487.12990000000002 x209
-487.12990000000002 x210
-492.39055000000002 x223
-27.718500000000002 x225
-492.39055000000002 x227
-27.718500000000002 x229
-492.39055000000002 x231
-27.718500000000002 x233
-492.39055000000002 x235
-27.718500000000002 x237
-492.39055000000002 x239
-27.718500000000002 x241
-27.718500000000002 x245
-27.718500000000002 x246
-27.718500000000002 x251
-27.718500000000002 x252
-487.12990000000002 x257
-27.718500000000002 x258
-487.12990000000002 x261
-27.718500000000002 x262
-487.12990000000002 x265
-27.718500000000002 x266
-487.12990000000002 x269
-27.718500000000002 x270
-487.12990000000002 x273
-27.718500000000002 x274
-27.718500000000002 x277
-27.718500000000002 x278
-27.718500000000002 x283
-27.718500000000002 x284
+5 x61
+5 x62
+5 x63
+5 x64
+5 x65
+5 x66
+5 x67
+5 x68
+5 x69
+5 x70
+5 x71
+5 x72
+5 x73
+5 x74
+5 x75
+5 x76
+5 x77
+5 x78
+5 x79
+5 x80
+5 x81
+5 x82
+5 x83
+5 x84
+5 x85
+5 x86
+5 x87
+5 x88
+5 x89
+5 x90
+5 x91
+5 x92
+5 x93
+5 x94
+5 x95
+5 x96
+5 x97
+5 x98
+5 x99

s.t.

c_e_x368_:
+1 x169
+1 x170
+1 x171
+1 x172
-1 x291
= 0

c_e_x369_:
-1 x169
+1 x173
+1 x174
+1 x175
+1 x176
= 0

c_e_x370_:
-1 x173
+1 x177
+1 x178
+1 x179
+1 x180
= 0

c_e_x371_:
-1 x177
+1 x181
+1 x182
+1 x183
+1 x184
= 0

c_e_x372_:
-1 x181
+1 x185
+1 x186
+1 x187
+1 x188
= 0

c_e_x373_:
-1 x185
+1 x189
+1 x191
+1 x193
+1 x195
= 0

c_e_x374_:
+1 x190
+1 x192
+1 x194
+1 x196
-1 x292
= 0

c_e_x375_:
-1 x189
+1 x197
+1 x199
+1 x201
+1 x203
-1 x223
-1 x257
= 0

c_e_x376_:
-1 x190
+1 x198
+1 x200
+1 x202
+1 x204
= 0

c_e_x377_:
-1 x197
+1 x205
+1 x207
+1 x209
+1 x211
-1 x227
-1 x261
= 0

c_e_x378_:
-1 x198
+1 x206
+1 x208
+1 x210
+1 x212
= 0

c_e_x379_:
-1 x205
+1 x213
+1 x215
-1 x231
-1 x265
= 0

c_e_x380_:
-1 x206
+1 x214
+1 x216
= 0

c_e_x381_:
-1 x213
+1 x217
+1 x219
-1 x235
-1 x269
= 0

c_e_x382_:
-1 x214
+1 x218
+1 x220
= 0

c_e_x383_:
-1 x217
+1 x221
-1 x239
-1 x273
= 0

c_e_x384_:
-1 x218
+1 x222
= 0

c_e_x385_:
-1 x170
+1 x223
+1 x224
+1 x225
+1 x226
= 0

c_e_x386_:
-1 x174
-1 x224
+1 x227
+1 x228
+1 x229
+1 x230
-1 x258
= 0

c_e_x387_:
-1 x178
-1 x228
+1 x231
+1 x232
+1 x233
+1 x234
-1 x262
= 0

c_e_x388_:
-1 x182
-1 x232
+1 x235
+1 x236
+1 x237
+1 x238
-1 x266
= 0

c_e_x389_:
-1 x186
-1 x236
+1 x239
+1 x240
+1 x241
+1 x242
-1 x270
= 0

c_e_x390_:
-1 x191
-1 x240
+1 x243
+1 x245
+1 x247
-1 x274
= 0

c_e_x391_:
-1 x192
+1 x244
+1 x246
+1 x248
= 0

c_e_x392_:
-1 x199
-1 x243
+1 x249
+1 x251
+1 x253
-1 x277
= 0

c_e_x393_:
-1 x200
-1 x244
+1 x250
+1 x252
+1 x254
-1 x278
= 0

c_e_x394_:
-1 x207
-1 x249
+1 x255
-1 x283
= 0

c_e_x395_:
-1 x208
-1 x250
+1 x256
-1 x284
= 0

c_e_x396_:
-1 x171
+1 x257
+1 x258
+1 x259
+1 x260
= 0

c_e_x397_:
-1 x175
-1 x225
-1 x259
+1 x261
+1 x262
+1 x263
+1 x264
= 0

c_e_x398_:
-1 x179
-1 x229
-1 x263
+1 x265
+1 x266
+1 x267
+1 x268
= 0

c_e_x399_:
-1 x183
-1 x233
-1 x267
+1 x269
+1 x270
+1 x271
+1 x272
= 0

c_e_x400_:
-1 x187
-1 x237
-1 x271
+1 x273
+1 x274
+1 x275
+1 x276
= 0

c_e_x401_:
-1 x193
-1 x241
-1 x275
+1 x277
+1 x279
+1 x281
= 0

c_e_x402_:
-1 x194
+1 x278
+1 x280
+1 x282
= 0

c_e_x403_:
-1 x201
-1 x245
-1 x279
+1 x283
+1 x285
+1 x287
= 0

c_e_x404_:
-1 x202
-1 x246
-1 x280
+1 x284
+1 x286
+1 x288
= 0

c_e_x405_:
-1 x209
-1 x251
-1 x285
+1 x289
= 0

c_e_x406_:
-1 x210
-1 x252
-1 x286
+1 x290
= 0

c_e_x407_:
+1 x291
+1 x293
= 1

c_e_x408_:
+1 x292
+1 x294
= 1

c_e_x409_:
+1 x172
+1 x176
+1 x180
+1 x184
+1 x188
+1 x195
+1 x203
+1 x211
+1 x215
+1 x219
+1 x221
+1 x226
+1 x230
+1 x234
+1 x238
+1 x242
+1 x247
+1 x253
+1 x255
+1 x260
+1 x264
+1 x268
+1 x272
+1 x276
+1 x281
+1 x287
+1 x289
+1 x293
= 1

c_e_x410_:
+1 x196
+1 x204
+1 x212
+1 x216
+1 x220
+1 x222
+1 x248
+1 x254
+1 x256
+1 x282
+1 x288
+1 x290
+1 x294
= 1

c_e_x411_:
-1 x1
+1 x109
+1 x37
+1 x38
= 297

c_e_x412_:
-1 x109
+1 x110
-1 x2
+1 x39
+1 x40
= 0

c_e_x413_:
-1 x110
+1 x111
-1 x3
+1 x41
+1 x42
= 0

c_e_x414_:
-1 x111
+1 x112
-1 x4
+1 x43
+1 x44
= 0

c_e_x415_:
-1 x112
+1 x113
+1 x45
+1 x46
-1 x5
= 0

c_e_x416_:
-1 x113
+1 x114
+1 x47
+1 x48
-1 x6
= 0

c_e_x417_:
-1 x114
+1 x115
+1 x49
+1 x50
-1 x7
= 0

c_e_x418_:
-1 x115
+1 x116
+1 x51
+1 x52
-1 x8
= 0

c_e_x419_:
-1 x116
+1 x117
+1 x53
+1 x54
-1 x9
= 0

c_e_x420_:
-1 x10
-1 x117
+1 x118
+1 x55
+1 x56
= 0

c_e_x421_:
-1 x11
-1 x118
+1 x119
+1 x57
+1 x58
= 0

c_e_x422_:
-1 x119
-1 x12
+1 x120
+1 x59
+1 x60
= 0

c_e_x423_:
+1 x121
+1 x13
-1 x61
-1 x62
= 168

c_e_x424_:
-1 x121
+1 x122
+1 x14
-1 x63
-1 x64
= 0

c_e_x425_:
-1 x122
+1 x123
+1 x15
-1 x65
-1 x66
= 0

c_e_x426_:
-1 x123
+1 x124
+1 x16
-1 x67
-1 x68
= 0

c_e_x427_:
-1 x124
+1 x125
+1 x17
-1 x69
-1 x70
= 0

c_e_x428_:
-1 x125
+1 x126
+1 x18
-1 x71
-1 x72
= 0

c_e_x429_:
-1 x126
+1 x127
+1 x19
-1 x73
-1 x74
= 0

c_e_x430_:
-1 x127
+1 x128
+1 x20
-1 x75
-1 x76
= 0

c_e_x431_:
-1 x128
+1 x129
+1 x21
-1 x77
-1 x78
= 0

c_e_x432_:
-1 x129
+1 x130
+1 x22
-1 x79
-1 x80
= 0

c_e_x433_:
-1 x130
+1 x131
+1 x23
-1 x81
-1 x82
= 0

c_e_x434_:
-1 x131
+1 x132
+1 x24
-1 x83
-1 x84
= 0

c_e_x435_:
+1 x133
+1 x25
-1 x85
-1 x86
= 255

c_e_x436_:
-1 x133
+1 x134
+1 x26
-1 x87
-1 x88
= 0

c_e_x437_:
-1 x134
+1 x135
+1 x27
-1 x89
-1 x90
= 0

c_e_x438_:
-1 x135
+1 x136
+1 x28
-1 x91
-1 x92
= 0

c_e_x439_:
-1 x136
+1 x137
+1 x29
-1 x93
-1 x94
= 0

c_e_x440_:
-1 x137
+1 x138
+1 x30
-1 x95
-1 x96
= 0

c_e_x441_:
-1 x138
+1 x139
+1 x31
-1 x97
-1 x98
= 0

c_e_x442_:
-1 x100
-1 x139
+1 x140
+1 x32
-1 x99
= 0

c_e_x443_:
-1 x101
-1 x102
-1 x140
+1 x141
+1 x33
= 0

c_e_x444_:
-1 x103
-1 x104
-1 x141
+1 x142
+1 x34
= 0

c_e_x445_:
-1 x105
-1 x106
-1 x142
+1 x143
+1 x35
= 0

c_e_x446_:
-1 x107
-1 x108
-1 x143
+1 x144
+1 x36
= 0

c_e_x447_:
+1 x145
-1 x37
+1 x61
+1 x85
= 300

c_e_x448_:
+1 x146
-1 x38
+1 x62
+1 x86
= 0

c_e_x449_:
-1 x145
+1 x147
-1 x39
+1 x63
+1 x87
= 0

c_e_x450_:
-1 x146
+1 x148
-1 x40
+1 x64
+1 x88
= 0

c_e_x451_:
-1 x147
+1 x149
-1 x41
+1 x65
+1 x89
= 0

c_e_x452_:
-1 x148
+1 x150
-1 x42
+1 x66
+1 x90
= 0

c_e_x453_:
-1 x149
+1 x151
-1 x43
+1 x67
+1 x91
= 0

c_e_x454_:
-1 x150
+1 x152
-1 x44
+1 x68
+1 x92
= 0

c_e_x455_:
-1 x151
+1 x153
-1 x45
+1 x69
+1 x93
= 0

c_e_x456_:
-1 x152
+1 x154
-1 x46
+1 x70
+1 x94
= 0

c_e_x457_:
-1 x153
+1 x155
-1 x47
+1 x71
+1 x95
= 0

c_e_x458_:
-1 x154
+1 x156
-1 x48
+1 x72
+1 x96
= 0

c_e_x459_:
-1 x155
+1 x157
-1 x49
+1 x73
+1 x97
= 0

c_e_x460_:
-1 x156
+1 x158
-1 x50
+1 x74
+1 x98
= 0

c_e_x461_:
-1 x157
+1 x159
-1 x51
+1 x75
+1 x99
= 0

c_e_x462_:
+1 x100
-1 x158
+1 x160
-1 x52
+1 x76
= 0

c_e_x463_:
+1 x101
-1 x159
+1 x161
-1 x53
+1 x77
= 0

c_e_x464_:
+1 x102
-1 x160
+1 x162
-1 x54
+1 x78
= 0

c_e_x465_:
+1 x103
-1 x161
+1 x163
-1 x55
+1 x79
= 0

c_e_x466_:
+1 x104
-1 x162
+1 x164
-1 x56
+1 x80
= 0

c_e_x467_:
+1 x105
-1 x163
+1 x165
-1 x57
+1 x81
= 0

c_e_x468_:
+1 x106
-1 x164
+1 x166
-1 x58
+1 x82
= 0

c_e_x469_:
+1 x107
-1 x165
+1 x167
-1 x59
+1 x83
= 0

c_e_x470_:
+1 x108
-1 x166
+1 x168
-1 x60
+1 x84
= 0

c_u_x471_:
+1 x295
+1 x296
<= 1

c_u_x472_:
+1 x297
+1 x298
<= 1

c_u_x473_:
+1 x299
+1 x300
<= 1

c_u_x474_:
+1 x301
+1 x302
<= 1

c_u_x475_:
+1 x303
+1 x304
<= 1

c_u_x476_:
+1 x305
+1 x306
<= 1

c_u_x477_:
+1 x307
+1 x308
<= 1

c_u_x478_:
+1 x309
+1 x310
<= 1

c_u_x479_:
+1 x311
+1 x312
<= 1

c_u_x480_:
+1 x313
+1 x314
<= 1

c_u_x481_:
+1 x315
+1 x316
<= 1

c_u_x482_:
+1 x317
+1 x318
<= 1

c_u_x483_:
+1 x319
+1 x320
<= 1

c_u_x484_:
+1 x321
+1 x322
<= 1

c_u_x485_:
+1 x323
+1 x324
<= 1

c_u_x486_:
+1 x325
+1 x326
<= 1

c_u_x487_:
+1 x327
+1 x328
<= 1

c_u_x488_:
+1 x329
+1 x330
<= 1

c_u_x489_:
+1 x331
+1 x332
<= 1

c_u_x490_:
+1 x333
+1 x334
<= 1

c_u_x491_:
+1 x335
+1 x336
<= 1

c_u_x492_:
+1 x337
+1 x338
<= 1

c_u_x493_:
+1 x339
+1 x340
<= 1

c_u_x494_:
+1 x341
+1 x342
<= 1

c_u_x495_:
+1 x343
+1 x344
<= 1

c_u_x496_:
+1 x345
+1 x346
<= 1

c_u_x497_:
+1 x347
+1 x348
<= 1

c_u_x498_:
+1 x349
+1 x350
<= 1

c_u_x499_:
+1 x351
+1 x352
<= 1

c_u_x500_:
+1 x353
+1 x354
<= 1

c_u_x501_:
+1 x355
+1 x356
<= 1

c_u_x502_:
+1 x357
+1 x358
<= 1

c_u_x503_:
+1 x359
+1 x360
<= 1

c_u_x504_:
+1 x361
+1 x362
<= 1

c_u_x505_:
+1 x363
+1 x364
<= 1

c_u_x506_:
+1 x365
+1 x366
<= 1

c_u_x507_:
+1 x295
<= 0

c_u_x508_:
+1 x296
<= 0

c_u_x509_:
-1 x291
+1 x297
<= 0

c_u_x510_:
+1 x298
<= 0

c_u_x511_:
-1 x169
+1 x299
<= 0

c_u_x512_:
+1 x300
<= 0

c_u_x513_:
-1 x173
+1 x301
<= 0

c_u_x514_:
+1 x302
<= 0

c_u_x515_:
-1 x177
+1 x303
<= 0

c_u_x516_:
+1 x304
<= 0

c_u_x517_:
-1 x181
+1 x305
<= 0

c_u_x518_:
+1 x306
<= 0

c_u_x519_:
-1 x185
+1 x307
<= 0

c_u_x520_:
-1 x292
+1 x308
<= 0

c_u_x521_:
-1 x189
-1 x223
-1 x257
+1 x309
<= 0

c_u_x522_:
-1 x190
+1 x310
<= 0

c_u_x523_:
-1 x197
-1 x227
-1 x261
+1 x311
<= 0

c_u_x524_:
-1 x198
+1 x312
<= 0

c_u_x525_:
-1 x205
-1 x231
-1 x265
+1 x313
<= 0

c_u_x526_:
-1 x206
+1 x314
<= 0

c_u_x527_:
-1 x213
-1 x235
-1 x269
+1 x315
<= 0

c_u_x528_:
-1 x214
+1 x316
<= 0

c_u_x529_:
-1 x217
-1 x239
-1 x273
+1 x317
<= 0

c_u_x530_:
-1 x218
+1 x318
<= 0

c_u_x531_:
+1 x319
<= 0

c_u_x532_:
+1 x320
<= 0

c_u_x533_:
+1 x321
<= 0

c_u_x534_:
+1 x322
<= 0

c_u_x535_:
+1 x323
<= 0

c_u_x536_:
+1 x324
<= 0

c_u_x537_:
+1 x325
<= 0

c_u_x538_:
+1 x326
<= 0

c_u_x539_:
-1 x170
+1 x327
<= 0

c_u_x540_:
+1 x328
<= 0

c_u_x541_:
-1 x174
-1 x224
-1 x258
+1 x329
<= 0

c_u_x542_:
+1 x330
<= 0

c_u_x543_:
-1 x178
-1 x228
-1 x262
+1 x331
<= 0

c_u_x544_:
+1 x332
<= 0

c_u_x545_:
-1 x182
-1 x232
-1 x266
+1 x333
<= 0

c_u_x546_:
+1 x334
<= 0

c_u_x547_:
-1 x186
-1 x236
-1 x270
+1 x335
<= 0

c_u_x548_:
+1 x336
<= 0

c_u_x549_:
-1 x191
-1 x240
-1 x274
+1 x337
<= 0

c_u_x550_:
-1 x192
+1 x338
<= 0

c_u_x551_:
-1 x199
-1 x243
-1 x277
+1 x339
<= 0

c_u_x552_:
-1 x200
-1 x244
-1 x278
+1 x340
<= 0

c_u_x553_:
-1 x207
-1 x249
-1 x283
+1 x341
<= 0

c_u_x554_:
-1 x208
-1 x250
-1 x284
+1 x342
<= 0

c_u_x555_:
+1 x343
<= 0

c_u_x556_:
+1 x344
<= 0

c_u_x557_:
+1 x345
<= 0

c_u_x558_:
+1 x346
<= 0

c_u_x559_:
+1 x347
<= 0

c_u_x560_:
+1 x348
<= 0

c_u_x561_:
+1 x349
<= 0

c_u_x562_:
+1 x350
<= 0

c_u_x563_:
-1 x171
+1 x351
<= 0

c_u_x564_:
+1 x352
<= 0

c_u_x565_:
-1 x175
-1 x225
-1 x259
+1 x353
<= 0

c_u_x566_:
+1 x354
<= 0

c_u_x567_:
-1 x179
-1 x229
-1 x263
+1 x355
<= 0

c_u_x568_:
+1 x356
<= 0

c_u_x569_:
-1 x183
-1 x233
-1 x267
+1 x357
<= 0

c_u_x570_:
+1 x358
<= 0

c_u_x571_:
-1 x187
-1 x237
-1 x271
+1 x359
<= 0

c_u_x572_:
+1 x360
<= 0

c_u_x573_:
-1 x193
-1 x241
-1 x275
+1 x361
<= 0

c_u_x574_:
-1 x194
+1 x362
<= 0

c_u_x575_:
-1 x201
-1 x245
-1 x279
+1 x363
<= 0

c_u_x576_:
-1 x202
-1 x246
-1 x280
+1 x364
<= 0

c_u_x577_:
-1 x209
-1 x251
-1 x285
+1 x365
<= 0

c_u_x578_:
-1 x210
-1 x252
-1 x286
+1 x366
<= 0

c_u_x579_:
+35 x295
-1 x37
<= 0

c_u_x580_:
+35 x296
-1 x38
<= 0

c_u_x581_:
+35 x297
-1 x39
<= 0

c_u_x582_:
+35 x298
-1 x40
<= 0

c_u_x583_:
+35 x299
-1 x41
<= 0

c_u_x584_:
+35 x300
-1 x42
<= 0

c_u_x585_:
+35 x301
-1 x43
<= 0

c_u_x586_:
+35 x302
-1 x44
<= 0

c_u_x587_:
+35 x303
-1 x45
<= 0

c_u_x588_:
+35 x304
-1 x46
<= 0

c_u_x589_:
+35 x305
-1 x47
<= 0

c_u_x590_:
+35 x306
-1 x48
<= 0

c_u_x591_:
+35 x307
-1 x49
<= 0

c_u_x592_:
+35 x308
-1 x50
<= 0

c_u_x593_:
+35 x309
-1 x51
<= 0

c_u_x594_:
+35 x310
-1 x52
<= 0

c_u_x595_:
+35 x311
-1 x53
<= 0

c_u_x596_:
+35 x312
-1 x54
<= 0

c_u_x597_:
+35 x313
-1 x55
<= 0

c_u_x598_:
+35 x314
-1 x56
<= 0

c_u_x599_:
+35 x315
-1 x57
<= 0

c_u_x600_:
+35 x316
-1 x58
<= 0

c_u_x601_:
+35 x317
-1 x59
<= 0

c_u_x602_:
+35 x318
-1 x60
<= 0

c_u_x603_:
+50 x319
-1 x61
<= 0

c_u_x604_:
+50 x320
-1 x62
<= 0

c_u_x605_:
+50 x321
-1 x63
<= 0

c_u_x606_:
+50 x322
-1 x64
<= 0

c_u_x607_:
+50 x323
-1 x65
<= 0

c_u_x608_:
+50 x324
-1 x66
<= 0

c_u_x609_:
+50 x325
-1 x67
<= 0

c_u_x610_:
+50 x326
-1 x68
<= 0

c_u_x611_:
+50 x327
-1 x69
<= 0

c_u_x612_:
+50 x328
-1 x70
<= 0

c_u_x613_:
+50 x329
-1 x71
<= 0

c_u_x614_:
+50 x330
-1 x72
<= 0

c_u_x615_:
+50 x331
-1 x73
<= 0

c_u_x616_:
+50 x332
-1 x74
<= 0

c_u_x617_:
+50 x333
-1 x75
<= 0

c_u_x618_:
+50 x334
-1 x76
<= 0

c_u_x619_:
+50 x335
-1 x77
<= 0

c_u_x620_:
+50 x336
-1 x78
<= 0

c_u_x621_:
+50 x337
-1 x79
<= 0

c_u_x622_:
+50 x338
-1 x80
<= 0

c_u_x623_:
+50 x339
-1 x81
<= 0

c_u_x624_:
+50 x340
-1 x82
<= 0

c_u_x625_:
+50 x341
-1 x83
<= 0

c_u_x626_:
+50 x342
-1 x84
<= 0

c_u_x627_:
+35 x343
-1 x85
<= 0

c_u_x628_:
+35 x344
-1 x86
<= 0

c_u_x629_:
+35 x345
-1 x87
<= 0

c_u_x630_:
+35 x346
-1 x88
<= 0

c_u_x631_:
+35 x347
-1 x89
<= 0

c_u_x632_:
+35 x348
-1 x90
<= 0

c_u_x633_:
+35 x349
-1 x91
<= 0

c_u_x634_:
+35 x350
-1 x92
<= 0

c_u_x635_:
+35 x351
-1 x93
<= 0

c_u_x636_:
+35 x352
-1 x94
<= 0

c_u_x637_:
+35 x353
-1 x95
<= 0

c_u_x638_:
+35 x354
-1 x96
<= 0

c_u_x639_:
+35 x355
-1 x97
<= 0

c_u_x640_:
+35 x356
-1 x98
<= 0

c_u_x641_:
+35 x357
-1 x99
<= 0

c_u_x642_:
-1 x100
+35 x358
<= 0

c_u_x643_:
-1 x101
+35 x359
<= 0

c_u_x644_:
-1 x102
+35 x360
<= 0

c_u_x645_:
-1 x103
+35 x361
<= 0

c_u_x646_:
-1 x104
+35 x362
<= 0

c_u_x647_:
-1 x105
+35 x363
<= 0

c_u_x648_:
-1 x106
+35 x364
<= 0

c_u_x649_:
-1 x107
+35 x365
<= 0

c_u_x650_:
-1 x108
+35 x366
<= 0

c_u_x651_:
-300 x295
+1 x37
<= 0

c_u_x652_:
-300 x296
+1 x38
<= 0

c_u_x653_:
-300 x297
+1 x39
<= 0

c_u_x654_:
-300 x298
+1 x40
<= 0

c_u_x655_:
-300 x299
+1 x41
<= 0

c_u_x656_:
-300 x300
+1 x42
<= 0

c_u_x657_:
-300 x301
+1 x43
<= 0

c_u_x658_:
-300 x302
+1 x44
<= 0

c_u_x659_:
-300 x303
+1 x45
<= 0

c_u_x660_:
-300 x304
+1 x46
<= 0

c_u_x661_:
-300 x305
+1 x47
<= 0

c_u_x662_:
-300 x306
+1 x48
<= 0

c_u_x663_:
-300 x307
+1 x49
<= 0

c_u_x664_:
-300 x308
+1 x50
<= 0

c_u_x665_:
-300 x309
+1 x51
<= 0

c_u_x666_:
-300 x310
+1 x52
<= 0

c_u_x667_:
-300 x311
+1 x53
<= 0

c_u_x668_:
-300 x312
+1 x54
<= 0

c_u_x669_:
-300 x313
+1 x55
<= 0

c_u_x670_:
-300 x314
+1 x56
<= 0

c_u_x671_:
-300 x315
+1 x57
<= 0

c_u_x672_:
-300 x316
+1 x58
<= 0

c_u_x673_:
-300 x317
+1 x59
<= 0

c_u_x674_:
-300 x318
+1 x60
<= 0

c_u_x675_:
-300 x319
+1 x61
<= 0

c_u_x676_:
-300 x320
+1 x62
<= 0

c_u_x677_:
-300 x321
+1 x63
<= 0

c_u_x678_:
-300 x322
+1 x64
<= 0

c_u_x679_:
-300 x323
+1 x65
<= 0

c_u_x680_:
-300 x324
+1 x66
<= 0

c_u_x681_:
-300 x325
+1 x67
<= 0

c_u_x682_:
-300 x326
+1 x68
<= 0

c_u_x683_:
-300 x327
+1 x69
<= 0

c_u_x684_:
-300 x328
+1 x70
<= 0

c_u_x685_:
-300 x329
+1 x71
<= 0

c_u_x686_:
-300 x330
+1 x72
<= 0

c_u_x687_:
-300 x331
+1 x73
<= 0

c_u_x688_:
-300 x332
+1 x74
<= 0

c_u_x689_:
-300 x333
+1 x75
<= 0

c_u_x690_:
-300 x334
+1 x76
<= 0

c_u_x691_:
-300 x335
+1 x77
<= 0

c_u_x692_:
-300 x336
+1 x78
<= 0

c_u_x693_:
-300 x337
+1 x79
<= 0

c_u_x694_:
-300 x338
+1 x80
<= 0

c_u_x695_:
-300 x339
+1 x81
<= 0

c_u_x696_:
-300 x340
+1 x82
<= 0

c_u_x697_:
-300 x341
+1 x83
<= 0

c_u_x698_:
-300 x342
+1 x84
<= 0

c_u_x699_:
-300 x343
+1 x85
<= 0

c_u_x700_:
-300 x344
+1 x86
<= 0

c_u_x701_:
-300 x345
+1 x87
<= 0

c_u_x702_:
-300 x346
+1 x88
<= 0

c_u_x703_:
-300 x347
+1 x89
<= 0

c_u_x704_:
-300 x348
+1 x90
<= 0

c_u_x705_:
-300 x349
+1 x91
<= 0

c_u_x706_:
-300 x350
+1 x92
<= 0

c_u_x707_:
-300 x351
+1 x93
<= 0

c_u_x708_:
-300 x352
+1 x94
<= 0

c_u_x709_:
-300 x353
+1 x95
<= 0

c_u_x710_:
-300 x354
+1 x96
<= 0

c_u_x711_:
-300 x355
+1 x97
<= 0

c_u_x712_:
-300 x356
+1 x98
<= 0

c_u_x713_:
-300 x357
+1 x99
<= 0

c_u_x714_:
+1 x100
-300 x358
<= 0

c_u_x715_:
+1 x101
-300 x359
<= 0

c_u_x716_:
+1 x102
-300 x360
<= 0

c_u_x717_:
+1 x103
-300 x361
<= 0

c_u_x718_:
+1 x104
-300 x362
<= 0

c_u_x719_:
+1 x105
-300 x363
<= 0

c_u_x720_:
+1 x106
-300 x364
<= 0

c_u_x721_:
+1 x107
-300 x365
<= 0

c_u_x722_:
+1 x108
-300 x366
<= 0

c_l_x723_:
+1 x1
>= 39

c_l_x724_:
+1 x2
>= 39

c_l_x725_:
+1 x3
>= 39

c_l_x726_:
+1 x4
>= 39

c_l_x727_:
+1 x5
>= 39

c_l_x728_:
+1 x6
>= 39

c_l_x729_:
+1 x7
>= 39

c_l_x730_:
+1 x8
>= 39

c_l_x731_:
+1 x9
>= 39

c_l_x732_:
+1 x10
>= 39

c_l_x733_:
+1 x11
>= 39

c_l_x734_:
+1 x12
>= 39

c_l_x735_:
+1 x13
>= 39

c_l_x736_:
+1 x14
>= 39

c_l_x737_:
+1 x15
>= 39

c_l_x738_:
+1 x16
>= 39

c_l_x739_:
+1 x17
>= 39

c_l_x740_:
+1 x18
>= 39

c_l_x741_:
+1 x19
>= 39

c_l_x742_:
+1 x20
>= 39

c_l_x743_:
+1 x21
>= 39

c_l_x744_:
+1 x22
>= 39

c_l_x745_:
+1 x23
>= 39

c_l_x746_:
+1 x24
>= 39

c_l_x747_:
+1 x25
>= 34

c_l_x748_:
+1 x26
>= 34

c_l_x749_:
+1 x27
>= 34

c_l_x750_:
+1 x28
>= 34

c_l_x751_:
+1 x29
>= 34

c_l_x752_:
+1 x30
>= 34

c_l_x753_:
+1 x31
>= 34

c_l_x754_:
+1 x32
>= 34

c_l_x755_:
+1 x33
>= 34

c_l_x756_:
+1 x34
>= 34

c_l_x757_:
+1 x35
>= 34

c_l_x758_:
+1 x36
>= 34

c_u_x759_:
+1 x1
<= 99

c_u_x760_:
+1 x2
<= 99

c_u_x761_:
+1 x3
<= 99

c_u_x762_:
+1 x4
<= 99

c_u_x763_:
+1 x5
<= 99

c_u_x764_:
+1 x6
<= 99

c_u_x765_:
+1 x7
<= 99

c_u_x766_:
+1 x8
<= 99

c_u_x767_:
+1 x9
<= 99

c_u_x768_:
+1 x10
<= 99

c_u_x769_:
+1 x11
<= 99

c_u_x770_:
+1 x12
<= 99

c_u_x771_:
+1 x13
<= 39

c_u_x772_:
+1 x14
<= 39

c_u_x773_:
+1 x15
<= 39

c_u_x774_:
+1 x16
<= 39

c_u_x775_:
+1 x17
<= 39

c_u_x776_:
+1 x18
<= 39

c_u_x777_:
+1 x19
<= 39

c_u_x778_:
+1 x20
<= 39

c_u_x779_:
+1 x21
<= 39

c_u_x780_:
+1 x22
<= 39

c_u_x781_:
+1 x23
<= 39

c_u_x782_:
+1 x24
<= 39

c_u_x783_:
+1 x25
<= 34

c_u_x784_:
+1 x26
<= 34

c_u_x785_:
+1 x27
<= 34

c_u_x786_:
+1 x28
<= 34

c_u_x787_:
+1 x29
<= 34

c_u_x788_:
+1 x30
<= 34

c_u_x789_:
+1 x31
<= 34

c_u_x790_:
+1 x32
<= 34

c_u_x791_:
+1 x33
<= 34

c_u_x792_:
+1 x34
<= 34

c_u_x793_:
+1 x35
<= 34

c_u_x794_:
+1 x36
<= 34

c_l_x795_:
+1 x109
>= 0

c_l_x796_:
+1 x110
>= 0

c_l_x797_:
+1 x111
>= 0

c_l_x798_:
+1 x112
>= 0

c_l_x799_:
+1 x113
>= 0

c_l_x800_:
+1 x114
>= 0

c_l_x801_:
+1 x115
>= 0

c_l_x802_:
+1 x116
>= 0

c_l_x803_:
+1 x117
>= 0

c_l_x804_:
+1 x118
>= 0

c_l_x805_:
+1 x119
>= 0

c_l_x806_:
+1 x120
>= 0

c_l_x807_:
+1 x121
>= 0

c_l_x808_:
+1 x122
>= 0

c_l_x809_:
+1 x123
>= 0

c_l_x810_:
+1 x124
>= 0

c_l_x811_:
+1 x125
>= 0

c_l_x812_:
+1 x126
>= 0

c_l_x813_:
+1 x127
>= 0

c_l_x814_:
+1 x128
>= 0

c_l_x815_:
+1 x129
>= 0

c_l_x816_:
+1 x130
>= 0

c_l_x817_:
+1 x131
>= 0

c_l_x818_:
+1 x132
>= 0

c_l_x819_:
+1 x133
>= 0

c_l_x820_:
+1 x134
>= 0

c_l_x821_:
+1 x135
>= 0

c_l_x822_:
+1 x136
>= 0

c_l_x823_:
+1 x137
>= 0

c_l_x824_:
+1 x138
>= 0

c_l_x825_:
+1 x139
>= 0

c_l_x826_:
+1 x140
>= 0

c_l_x827_:
+1 x141
>= 0

c_l_x828_:
+1 x142
>= 0

c_l_x829_:
+1 x143
>= 0

c_l_x830_:
+1 x144
>= 0

c_u_x831_:
+1 x109
<= 594

c_u_x832_:
+1 x110
<= 594

c_u_x833_:
+1 x111
<= 594

c_u_x834_:
+1 x112
<= 594

c_u_x835_:
+1 x113
<= 594

c_u_x836_:
+1 x114
<= 594

c_u_x837_:
+1 x115
<= 594

c_u_x838_:
+1 x116
<= 594

c_u_x839_:
+1 x117
<= 594

c_u_x840_:
+1 x118
<= 594

c_u_x841_:
+1 x119
<= 594

c_u_x842_:
+1 x120
<= 594

c_u_x843_:
+1 x121
<= 351

c_u_x844_:
+1 x122
<= 351

c_u_x845_:
+1 x123
<= 351

c_u_x846_:
+1 x124
<= 351

c_u_x847_:
+1 x125
<= 351

c_u_x848_:
+1 x126
<= 351

c_u_x849_:
+1 x127
<= 351

c_u_x850_:
+1 x128
<= 351

c_u_x851_:
+1 x129
<= 351

c_u_x852_:
+1 x130
<= 351

c_u_x853_:
+1 x131
<= 351

c_u_x854_:
+1 x132
<= 351

c_u_x855_:
+1 x133
<= 510

c_u_x856_:
+1 x134
<= 510

c_u_x857_:
+1 x135
<= 510

c_u_x858_:
+1 x136
<= 510

c_u_x859_:
+1 x137
<= 510

c_u_x860_:
+1 x138
<= 510

c_u_x861_:
+1 x139
<= 510

c_u_x862_:
+1 x140
<= 510

c_u_x863_:
+1 x141
<= 510

c_u_x864_:
+1 x142
<= 510

c_u_x865_:
+1 x143
<= 510

c_u_x866_:
+1 x144
<= 510

c_u_x867_:
+1 x145
<= 300

c_u_x868_:
+1 x147
<= 300

c_u_x869_:
+1 x149
<= 300

c_u_x870_:
+1 x151
<= 300

c_u_x871_:
+1 x153
<= 300

c_u_x872_:
+1 x155
<= 300

c_u_x873_:
+1 x157
<= 300

c_u_x874_:
+1 x159
<= 300

c_u_x875_:
+1 x161
<= 300

c_u_x876_:
+1 x163
<= 300

c_u_x877_:
+1 x165
<= 300

c_u_x878_:
+1 x167
<= 300

c_u_x879_:
+1 x146
<= 300

c_u_x880_:
+1 x148
<= 300

c_u_x881_:
+1 x150
<= 300

c_u_x882_:
+1 x152
<= 300

c_u_x883_:
+1 x154
<= 300

c_u_x884_:
+1 x156
<= 300

c_u_x885_:
+1 x158
<= 300

c_u_x886_:
+1 x160
<= 300

c_u_x887_:
+1 x162
<= 300

c_u_x888_:
+1 x164
<= 300

c_u_x889_:
+1 x166
<= 300

c_u_x890_:
+1 x168
<= 300

c_l_x891_:
+1 x145
>= 0

c_l_x892_:
+1 x147
>= 0

c_l_x893_:
+1 x149
>= 0

c_l_x894_:
+1 x151
>= 0

c_l_x895_:
+1 x153
>= 0

c_l_x896_:
+1 x155
>= 0

c_l_x897_:
+1 x157
>= 0

c_l_x898_:
+1 x159
>= 0

c_l_x899_:
+1 x161
>= 0

c_l_x900_:
+1 x163
>= 0

c_l_x901_:
+1 x165
>= 0

c_l_x902_:
+1 x167
>= 0

c_l_x903_:
+1 x146
>= 0

c_l_x904_:
+1 x148
>= 0

c_l_x905_:
+1 x150
>= 0

c_l_x906_:
+1 x152
>= 0

c_l_x907_:
+1 x154
>= 0

c_l_x908_:
+1 x156
>= 0

c_l_x909_:
+1 x158
>= 0

c_l_x910_:
+1 x160
>= 0

c_l_x911_:
+1 x162
>= 0

c_l_x912_:
+1 x164
>= 0

c_l_x913_:
+1 x166
>= 0

c_l_x914_:
+1 x168
>= 0

c_e_ONE_VAR_CONSTANT: 
ONE_VAR_CONSTANT = 1.0

bounds
   0 <= x1 <= +inf
   0 <= x2 <= +inf
   0 <= x3 <= +inf
   0 <= x4 <= +inf
   0 <= x5 <= +inf
   0 <= x6 <= +inf
   0 <= x7 <= +inf
   0 <= x8 <= +inf
   0 <= x9 <= +inf
   0 <= x10 <= +inf
   0 <= x11 <= +inf
   0 <= x12 <= +inf
   0 <= x13 <= +inf
   0 <= x14 <= +inf
   0 <= x15 <= +inf
   0 <= x16 <= +inf
   0 <= x17 <= +inf
   0 <= x18 <= +inf
   0 <= x19 <= +inf
   0 <= x20 <= +inf
   0 <= x21 <= +inf
   0 <= x22 <= +inf
   0 <= x23 <= +inf
   0 <= x24 <= +inf
   0 <= x25 <= +inf
   0 <= x26 <= +inf
   0 <= x27 <= +inf
   0 <= x28 <= +inf
   0 <= x29 <= +inf
   0 <= x30 <= +inf
   0 <= x31 <= +inf
   0 <= x32 <= +inf
   0 <= x33 <= +inf
   0 <= x34 <= +inf
   0 <= x35 <= +inf
   0 <= x36 <= +inf
   0 <= x37 <= +inf
   0 <= x38 <= +inf
   0 <= x39 <= +inf
   0 <= x40 <= +inf
   0 <= x41 <= +inf
   0 <= x42 <= +inf
   0 <= x43 <= +inf
   0 <= x44 <= +inf
   0 <= x45 <= +inf
   0 <= x46 <= +inf
   0 <= x47 <= +inf
   0 <= x48 <= +inf
   0 <= x49 <= +inf
   0 <= x50 <= +inf
   0 <= x51 <= +inf
   0 <= x52 <= +inf
   0 <= x53 <= +inf
   0 <= x54 <= +inf
   0 <= x55 <= +inf
   0 <= x56 <= +inf
   0 <= x57 <= +inf
   0 <= x58 <= +inf
   0 <= x59 <= +inf
   0 <= x60 <= +inf
   0 <= x61 <= +inf
   0 <= x62 <= +inf
   0 <= x63 <= +inf
   0 <= x64 <= +inf
   0 <= x65 <= +inf
   0 <= x66 <= +inf
   0 <= x67 <= +inf
   0 <= x68 <= +inf
   0 <= x69 <= +inf
   0 <= x70 <= +inf
   0 <= x71 <= +inf
   0 <= x72 <= +inf
   0 <= x73 <= +inf
   0 <= x74 <= +inf
   0 <= x75 <= +inf
   0 <= x76 <= +inf
   0 <= x77 <= +inf
   0 <= x78 <= +inf
   0 <= x79 <= +inf
   0 <= x80 <= +inf
   0 <= x81 <= +inf
   0 <= x82 <= +inf
   0 <= x83 <= +inf
   0 <= x84 <= +inf
   0 <= x85 <= +inf
   0 <= x86 <= +inf
   0 <= x87 <= +inf
   0 <= x88 <= +inf
   0 <= x89 <= +inf
   0 <= x90 <= +inf
   0 <= x91 <= +inf
   0 <= x92 <= +inf
   0 <= x93 <= +inf
   0 <= x94 <= +inf
   0 <= x95 <= +inf
   0 <= x96 <= +inf
   0 <= x97 <= +inf
   0 <= x98 <= +inf
   0 <= x99 <= +inf
   0 <= x100 <= +inf
   0 <= x101 <= +inf
   0 <= x102 <= +inf
   0 <= x103 <= +inf
   0 <= x104 <= +inf
   0 <= x105 <= +inf
   0 <= x106 <= +inf
   0 <= x107 <= +inf
   0 <= x108 <= +inf
   0 <= x109 <= +inf
   0 <= x110 <= +inf
   0 <= x111 <= +inf
   0 <= x112 <= +inf
   0 <= x113 <= +inf
   0 <= x114 <= +inf
   0 <= x115 <= +inf
   0 <= x116 <= +inf
   0 <= x117 <= +inf
   0 <= x118 <= +inf
   0 <= x119 <= +inf
   0 <= x120 <= +inf
   0 <= x121 <= +inf
   0 <= x122 <= +inf
   0 <= x123 <= +inf
   0 <= x124 <= +inf
   0 <= x125 <= +inf
   0 <= x126 <= +inf
   0 <= x127 <= +inf
   0 <= x128 <= +inf
   0 <= x129 <= +inf
   0 <= x130 <= +inf
   0 <= x131 <= +inf
   0 <= x132 <= +inf
   0 <= x133 <= +inf
   0 <= x134 <= +inf
   0 <= x135 <= +inf
   0 <= x136 <= +inf
   0 <= x137 <= +inf
   0 <= x138 <= +inf
   0 <= x139 <= +inf
   0 <= x140 <= +inf
   0 <= x141 <= +inf
   0 <= x142 <= +inf
   0 <= x143 <= +inf
   0 <= x144 <= +inf
   0 <= x145 <= +inf
   0 <= x146 <= +inf
   0 <= x147 <= +inf
   0 <= x148 <= +inf
   0 <= x149 <= +inf
   0 <= x150 <= +inf
   0 <= x151 <= +inf
   0 <= x152 <= +inf
   0 <= x153 <= +inf
   0 <= x154 <= +inf
   0 <= x155 <= +inf
   0 <= x156 <= +inf
   0 <= x157 <= +inf
   0 <= x158 <= +inf
   0 <= x159 <= +inf
   0 <= x160 <= +inf
   0 <= x161 <= +inf
   0 <= x162 <= +inf
   0 <= x163 <= +inf
   0 <= x164 <= +inf
   0 <= x165 <= +inf
   0 <= x166 <= +inf
   0 <= x167 <= +inf
   0 <= x168 <= +inf
   0 <= x169 <= 1
   0 <= x170 <= 1
   0 <= x171 <= 1
   0 <= x172 <= 1
   0 <= x173 <= 1
   0 <= x174 <= 1
   0 <= x175 <= 1
   0 <= x176 <= 1
   0 <= x177 <= 1
   0 <= x178 <= 1
   0 <= x179 <= 1
   0 <= x180 <= 1
   0 <= x181 <= 1
   0 <= x182 <= 1
   0 <= x183 <= 1
   0 <= x184 <= 1
   0 <= x185 <= 1
   0 <= x186 <= 1
   0 <= x187 <= 1
   0 <= x188 <= 1
   0 <= x189 <= 1
   0 <= x190 <= 1
   0 <= x191 <= 1
   0 <= x192 <= 1
   0 <= x193 <= 1
   0 <= x194 <= 1
   0 <= x195 <= 1
   0 <= x196 <= 1
   0 <= x197 <= 1
   0 <= x198 <= 1
   0 <= x199 <= 1
   0 <= x200 <= 1
   0 <= x201 <= 1
   0 <= x202 <= 1
   0 <= x203 <= 1
   0 <= x204 <= 1
   0 <= x205 <= 1
   0 <= x206 <= 1
   0 <= x207 <= 1
   0 <= x208 <= 1
   0 <= x209 <= 1
   0 <= x210 <= 1
   0 <= x211 <= 1
   0 <= x212 <= 1
   0 <= x213 <= 1
   0 <= x214 <= 1
   0 <= x215 <= 1
   0 <= x216 <= 1
   0 <= x217 <= 1
   0 <= x218 <= 1
   0 <= x219 <= 1
   0 <= x220 <= 1
   0 <= x221 <= 1
   0 <= x222 <= 1
   0 <= x223 <= 1
   0 <= x224 <= 1
   0 <= x225 <= 1
   0 <= x226 <= 1
   0 <= x227 <= 1
   0 <= x228 <= 1
   0 <= x229 <= 1
   0 <= x230 <= 1
   0 <= x231 <= 1
   0 <= x232 <= 1
   0 <= x233 <= 1
   0 <= x234 <= 1
   0 <= x235 <= 1
   0 <= x236 <= 1
   0 <= x237 <= 1
   0 <= x238 <= 1
   0 <= x239 <= 1
   0 <= x240 <= 1
   0 <= x241 <= 1
   0 <= x242 <= 1
   0 <= x243 <= 1
   0 <= x244 <= 1
   0 <= x245 <= 1
   0 <= x246 <= 1
   0 <= x247 <= 1
   0 <= x248 <= 1
   0 <= x249 <= 1
   0 <= x250 <= 1
   0 <= x251 <= 1
   0 <= x252 <= 1
   0 <= x253 <= 1
   0 <= x254 <= 1
   0 <= x255 <= 1
   0 <= x256 <= 1
   0 <= x257 <= 1
   0 <= x258 <= 1
   0 <= x259 <= 1
   0 <= x260 <= 1
   0 <= x261 <= 1
   0 <= x262 <= 1
   0 <= x263 <= 1
   0 <= x264 <= 1
   0 <= x265 <= 1
   0 <= x266 <= 1
   0 <= x267 <= 1
   0 <= x268 <= 1
   0 <= x269 <= 1
   0 <= x270 <= 1
   0 <= x271 <= 1
   0 <= x272 <= 1
   0 <= x273 <= 1
   0 <= x274 <= 1
   0 <= x275 <= 1
   0 <= x276 <= 1
   0 <= x277 <= 1
   0 <= x278 <= 1
   0 <= x279 <= 1
   0 <= x280 <= 1
   0 <= x281 <= 1
   0 <= x282 <= 1
   0 <= x283 <= 1
   0 <= x284 <= 1
   0 <= x285 <= 1
   0 <= x286 <= 1
   0 <= x287 <= 1
   0 <= x288 <= 1
   0 <= x289 <= 1
   0 <= x290 <= 1
   0 <= x291 <= 1
   0 <= x292 <= 1
   0 <= x293 <= 1
   0 <= x294 <= 1
   0 <= x295 <= 1
   0 <= x296 <= 1
   0 <= x297 <= 1
   0 <= x298 <= 1
   0 <= x299 <= 1
   0 <= x300 <= 1
   0 <= x301 <= 1
   0 <= x302 <= 1
   0 <= x303 <= 1
   0 <= x304 <= 1
   0 <= x305 <= 1
   0 <= x306 <= 1
   0 <= x307 <= 1
   0 <= x308 <= 1
   0 <= x309 <= 1
   0 <= x310 <= 1
   0 <= x311 <= 1
   0 <= x312 <= 1
   0 <= x313 <= 1
   0 <= x314 <= 1
   0 <= x315 <= 1
   0 <= x316 <= 1
   0 <= x317 <= 1
   0 <= x318 <= 1
   0 <= x319 <= 1
   0 <= x320 <= 1
   0 <= x321 <= 1
   0 <= x322 <= 1
   0 <= x323 <= 1
   0 <= x324 <= 1
   0 <= x325 <= 1
   0 <= x326 <= 1
   0 <= x327 <= 1
   0 <= x328 <= 1
   0 <= x329 <= 1
   0 <= x330 <= 1
   0 <= x331 <= 1
   0 <= x332 <= 1
   0 <= x333 <= 1
   0 <= x334 <= 1
   0 <= x335 <= 1
   0 <= x336 <= 1
   0 <= x337 <= 1
   0 <= x338 <= 1
   0 <= x339 <= 1
   0 <= x340 <= 1
   0 <= x341 <= 1
   0 <= x342 <= 1
   0 <= x343 <= 1
   0 <= x344 <= 1
   0 <= x345 <= 1
   0 <= x346 <= 1
   0 <= x347 <= 1
   0 <= x348 <= 1
   0 <= x349 <= 1
   0 <= x350 <= 1
   0 <= x351 <= 1
   0 <= x352 <= 1
   0 <= x353 <= 1
   0 <= x354 <= 1
   0 <= x355 <= 1
   0 <= x356 <= 1
   0 <= x357 <= 1
   0 <= x358 <= 1
   0 <= x359 <= 1
   0 <= x360 <= 1
   0 <= x361 <= 1
   0 <= x362 <= 1
   0 <= x363 <= 1
   0 <= x364 <= 1
   0 <= x365 <= 1
   0 <= x366 <= 1
binary
  x169
  x170
  x171
  x172
  x173
  x174
  x175
  x176
  x177
  x178
  x179
  x180
  x181
  x182
  x183
  x184
  x185
  x186
  x187
  x188
  x189
  x190
  x191
  x192
  x193
  x194
  x195
  x196
  x197
  x198
  x199
  x200
  x201
  x202
  x203
  x204
  x205
  x206
  x207
  x208
  x209
  x210
  x211
  x212
  x213
  x214
  x215
  x216
  x217
  x218
  x219
  x220
  x221
  x222
  x223
  x224
  x225
  x226
  x227
  x228
  x229
  x230
  x231
  x232
  x233
  x234
  x235
  x236
  x237
  x238
  x239
  x240
  x241
  x242
  x243
  x244
  x245
  x246
  x247
  x248
  x249
  x250
  x251
  x252
  x253
  x254
  x255
  x256
  x257
  x258
  x259
  x260
  x261
  x262
  x263
  x264
  x265
  x266
  x267
  x268
  x269
  x270
  x271
  x272
  x273
  x274
  x275
  x276
  x277
  x278
  x279
  x280
  x281
  x282
  x283
  x284
  x285
  x286
  x287
  x288
  x289
  x290
  x291
  x292
  x293
  x294
  x295
  x296
  x297
  x298
  x299
  x300
  x301
  x302
  x303
  x304
  x305
  x306
  x307
  x308
  x309
  x310
  x311
  x312
  x313
  x314
  x315
  x316
  x317
  x318
  x319
  x320
  x321
  x322
  x323
  x324
  x325
  x326
  x327
  x328
  x329
  x330
  x331
  x332
  x333
  x334
  x335
  x336
  x337
  x338
  x339
  x340
  x341
  x342
  x343
  x344
  x345
  x346
  x347
  x348
  x349
  x350
  x351
  x352
  x353
  x354
  x355
  x356
  x357
  x358
  x359
  x360
  x361
  x362
  x363
  x364
  x365
  x366
end
